c This is UnifRandomKSATGenerator
c uniform random 3-SAT generated instance with: 
c clause length: 3 
c number variables: 20 
c number clauses: 85 
c clause to variable ratio: 4.27 
c random number generator name: SHA1PRNG 
c random number generator provider: SUN 
c random number generator seed: 8261673981271081049 
p cnf 20 85
16 1 -14 0
1 14 7 0
11 5 7 0
-9 17 -15 0
8 -19 10 0
-17 19 -13 0
-17 1 -4 0
10 12 -14 0
2 11 -14 0
12 6 -8 0
-19 4 -16 0
-10 -6 7 0
3 4 7 0
-10 -16 15 0
8 17 14 0
19 -15 -8 0
9 -19 12 0
17 9 -15 0
18 -8 15 0
-2 -11 -13 0
-1 5 6 0
-18 -5 13 0
-18 -5 15 0
-11 -13 5 0
9 10 5 0
-10 -5 14 0
17 -7 -15 0
17 3 5 0
-18 -13 20 0
17 19 13 0
2 -19 4 0
-11 19 -13 0
8 11 -16 0
1 -20 -8 0
-10 -3 -4 0
1 -14 -15 0
-20 12 -8 0
17 -3 10 0
17 -20 -8 0
2 -7 15 0
16 18 12 0
-2 20 4 0
-19 20 -14 0
-3 2 20 0
-17 -9 -3 0
8 -17 -1 0
11 -5 -15 0
3 19 15 0
2 20 13 0
1 3 14 0
-9 19 -13 0
-5 -6 -16 0
-17 -3 -8 0
-9 -3 -8 0
18 -4 19 0
2 -20 19 0
10 19 -8 0
-10 -14 7 0
8 -4 -7 0
10 4 15 0
3 4 -16 0
-13 -5 -7 0
3 -5 -16 0
10 -20 -5 0
-10 15 7 0
-17 1 19 0
-1 -2 3 0
18 -6 7 0
-2 19 7 0
-17 20 -7 0
-1 -17 -6 0
-17 -14 -7 0
-3 -14 -8 0
8 -14 13 0
10 18 -13 0
-20 -12 4 0
-4 3 -8 0
-9 4 -6 0
16 -2 -7 0
-10 19 -15 0
-9 -11 -12 0
-10 -6 -7 0
-11 -12 -7 0
-10 17 19 0
-18 -3 -15 0
